certificates/rado_a15_c275_N51.cnf
c Rad2 upper bound instance: x1 + 15*x2 - x3 = 275, interval [1,51]
p cnf 51 344
1 11 19 0
-1 -11 -19 0
1 20 26 0
-1 -20 -26 0
1 21 41 0
-1 -21 -41 0
2 12 19 0
-2 -12 -19 0
2 20 27 0
-2 -20 -27 0
2 21 42 0
-2 -21 -42 0
3 13 19 0
-3 -13 -19 0
3 20 28 0
-3 -20 -28 0
3 21 43 0
-3 -21 -43 0
4 14 19 0
-4 -14 -19 0
4 20 29 0
-4 -20 -29 0
4 21 44 0
-4 -21 -44 0
5 15 19 0
-5 -15 -19 0
5 20 30 0
-5 -20 -30 0
5 21 45 0
-5 -21 -45 0
1 6 18 0
-1 -6 -18 0
6 16 19 0
-6 -16 -19 0
6 20 31 0
-6 -20 -31 0
6 21 46 0
-6 -21 -46 0
2 7 18 0
-2 -7 -18 0
7 17 19 0
-7 -17 -19 0
7 20 32 0
-7 -20 -32 0
7 21 47 0
-7 -21 -47 0
3 8 18 0
-3 -8 -18 0
8 18 19 0
-8 -18 -19 0
8 20 33 0
-8 -20 -33 0
8 21 48 0
-8 -21 -48 0
4 9 18 0
-4 -9 -18 0
9 19 0
-9 -19 0
9 20 34 0
-9 -20 -34 0
9 21 49 0
-9 -21 -49 0
5 10 18 0
-5 -10 -18 0
10 19 20 0
-10 -19 -20 0
10 20 35 0
-10 -20 -35 0
10 21 50 0
-10 -21 -50 0
6 11 18 0
-6 -11 -18 0
11 19 21 0
-11 -19 -21 0
11 20 36 0
-11 -20 -36 0
11 21 51 0
-11 -21 -51 0
7 12 18 0
-7 -12 -18 0
12 19 22 0
-12 -19 -22 0
12 20 37 0
-12 -20 -37 0
8 13 18 0
-8 -13 -18 0
13 19 23 0
-13 -19 -23 0
13 20 38 0
-13 -20 -38 0
9 14 18 0
-9 -14 -18 0
14 19 24 0
-14 -19 -24 0
14 20 39 0
-14 -20 -39 0
10 15 18 0
-10 -15 -18 0
15 19 25 0
-15 -19 -25 0
15 20 40 0
-15 -20 -40 0
11 16 18 0
-11 -16 -18 0
16 19 26 0
-16 -19 -26 0
16 20 41 0
-16 -20 -41 0
12 17 18 0
-12 -17 -18 0
17 19 27 0
-17 -19 -27 0
17 20 42 0
-17 -20 -42 0
13 18 0
-13 -18 0
18 19 28 0
-18 -19 -28 0
18 20 43 0
-18 -20 -43 0
14 18 19 0
-14 -18 -19 0
19 29 0
-19 -29 0
19 20 44 0
-19 -20 -44 0
15 18 20 0
-15 -18 -20 0
19 20 30 0
-19 -20 -30 0
20 45 0
-20 -45 0
1 17 21 0
-1 -17 -21 0
16 18 21 0
-16 -18 -21 0
19 21 31 0
-19 -21 -31 0
20 21 46 0
-20 -21 -46 0
2 17 22 0
-2 -17 -22 0
17 18 22 0
-17 -18 -22 0
19 22 32 0
-19 -22 -32 0
20 22 47 0
-20 -22 -47 0
3 17 23 0
-3 -17 -23 0
18 23 0
-18 -23 0
19 23 33 0
-19 -23 -33 0
20 23 48 0
-20 -23 -48 0
4 17 24 0
-4 -17 -24 0
18 19 24 0
-18 -19 -24 0
19 24 34 0
-19 -24 -34 0
20 24 49 0
-20 -24 -49 0
5 17 25 0
-5 -17 -25 0
18 20 25 0
-18 -20 -25 0
19 25 35 0
-19 -25 -35 0
20 25 50 0
-20 -25 -50 0
6 17 26 0
-6 -17 -26 0
18 21 26 0
-18 -21 -26 0
19 26 36 0
-19 -26 -36 0
20 26 51 0
-20 -26 -51 0
7 17 27 0
-7 -17 -27 0
18 22 27 0
-18 -22 -27 0
19 27 37 0
-19 -27 -37 0
8 17 28 0
-8 -17 -28 0
18 23 28 0
-18 -23 -28 0
19 28 38 0
-19 -28 -38 0
9 17 29 0
-9 -17 -29 0
18 24 29 0
-18 -24 -29 0
19 29 39 0
-19 -29 -39 0
10 17 30 0
-10 -17 -30 0
18 25 30 0
-18 -25 -30 0
19 30 40 0
-19 -30 -40 0
11 17 31 0
-11 -17 -31 0
18 26 31 0
-18 -26 -31 0
19 31 41 0
-19 -31 -41 0
12 17 32 0
-12 -17 -32 0
18 27 32 0
-18 -27 -32 0
19 32 42 0
-19 -32 -42 0
13 17 33 0
-13 -17 -33 0
18 28 33 0
-18 -28 -33 0
19 33 43 0
-19 -33 -43 0
14 17 34 0
-14 -17 -34 0
18 29 34 0
-18 -29 -34 0
19 34 44 0
-19 -34 -44 0
15 17 35 0
-15 -17 -35 0
18 30 35 0
-18 -30 -35 0
19 35 45 0
-19 -35 -45 0
1 16 36 0
-1 -16 -36 0
16 17 36 0
-16 -17 -36 0
18 31 36 0
-18 -31 -36 0
19 36 46 0
-19 -36 -46 0
2 16 37 0
-2 -16 -37 0
17 37 0
-17 -37 0
18 32 37 0
-18 -32 -37 0
19 37 47 0
-19 -37 -47 0
3 16 38 0
-3 -16 -38 0
17 18 38 0
-17 -18 -38 0
18 33 38 0
-18 -33 -38 0
19 38 48 0
-19 -38 -48 0
4 16 39 0
-4 -16 -39 0
17 19 39 0
-17 -19 -39 0
18 34 39 0
-18 -34 -39 0
19 39 49 0
-19 -39 -49 0
5 16 40 0
-5 -16 -40 0
17 20 40 0
-17 -20 -40 0
18 35 40 0
-18 -35 -40 0
19 40 50 0
-19 -40 -50 0
6 16 41 0
-6 -16 -41 0
17 21 41 0
-17 -21 -41 0
18 36 41 0
-18 -36 -41 0
19 41 51 0
-19 -41 -51 0
7 16 42 0
-7 -16 -42 0
17 22 42 0
-17 -22 -42 0
18 37 42 0
-18 -37 -42 0
8 16 43 0
-8 -16 -43 0
17 23 43 0
-17 -23 -43 0
18 38 43 0
-18 -38 -43 0
9 16 44 0
-9 -16 -44 0
17 24 44 0
-17 -24 -44 0
18 39 44 0
-18 -39 -44 0
10 16 45 0
-10 -16 -45 0
17 25 45 0
-17 -25 -45 0
18 40 45 0
-18 -40 -45 0
11 16 46 0
-11 -16 -46 0
17 26 46 0
-17 -26 -46 0
18 41 46 0
-18 -41 -46 0
12 16 47 0
-12 -16 -47 0
17 27 47 0
-17 -27 -47 0
18 42 47 0
-18 -42 -47 0
13 16 48 0
-13 -16 -48 0
17 28 48 0
-17 -28 -48 0
18 43 48 0
-18 -43 -48 0
14 16 49 0
-14 -16 -49 0
17 29 49 0
-17 -29 -49 0
18 44 49 0
-18 -44 -49 0
15 16 50 0
-15 -16 -50 0
17 30 50 0
-17 -30 -50 0
18 45 50 0
-18 -45 -50 0
1 15 51 0
-1 -15 -51 0
16 51 0
-16 -51 0
17 31 51 0
-17 -31 -51 0
18 46 51 0
-18 -46 -51 0
