certificates/rado_a15_c275_N51.drat
18 -51 0
45 -51 0
-51 0
16 0
-18 0
13 0
23 0
46 0
-19 0
-48 0
-11 0
9 0
28 0
29 0
24 0
8 0
14 0
41 0
38 0
43 0
1 0
6 0
21 0
-17 0
-44 0
0
